(define-fun
  u3
  ((x Int) (y Int)) Int (ite (<= x 0) y 1))
(define-fun
  h3
  () Int (+ 1 2))
(define-fun
  h2
  ((x Int)) Int x)
(define-fun
  h1
  ((x Int)) Int x)
(define-fun
  h0
  ((x Int)) Int x)
(define-fun
  g3
  ((x Int)) Int (mod x 2))
(define-fun
  v3
  ((x Int)) Int (u3 (g3 x) h3))
(define-fun
  g2
  () Int (+ 1 2))
(define-fun
  g1
  ((x Int)) Int (- 1 (mod x 2)))
(define-fun
  g0
  ((x Int)) Int x)
(define-fun
  f2
  ((x Int)) Int (div x (v3 x)))
(define-fun-rec
  u2
  ((x Int) (y Int)) Int (ite (<= x 0) y (f2 (u2 (- x 1) y))))
(define-fun
  v2
  ((x Int)) Int (u2 g2 x))
(define-fun-rec
  u1
  ((x Int) (y Int)) Int (ite (<= x 0) y (v2 (u1 (- x 1) y))))
(define-fun
  v1
  ((x Int)) Int (u1 (g1 x) x))
(define-fun
  fast
  ((x Int)) Int (+ (mod (v1 x) 2) 1))
(define-fun
  f0
  ((x Int)) Int (ite (<= (mod x 2) 0) (div x (+ 1 2)) 1))
(define-fun-rec
  u0
  ((x Int) (y Int)) Int (ite (<= x 0) y (f0 (u0 (- x 1) y))))
(define-fun
  v0
  ((x Int)) Int (u0 x x))
(define-fun
  small
  ((x Int)) Int (+ 1 (v0 x)))
(assert-not
  (forall ((c Int)) (or (not (>= c 0)) (= (small c) (fast c)))))
